proyfinal/src/viki/013/experimentInOfficeAgust.take6.output/2d55b8eb-ae51-4e41-9d1a-464617a7f0f0.als.out
Reading from standard input... Use '--help' for help.
============================[ Problem Statistics ]=============================
|                                                                             |
|  Number of variables:         87638                                         |
|  Number of clauses:          161767                                         |
|  Parse time:                   0.04 s                                       |
|                                                                             |
============================[ Search Statistics ]==============================
| Conflicts |          ORIGINAL         |          LEARNT          | Progress |
|           |    Vars  Clauses Literals |    Limit  Clauses Lit/Cl |          |
===============================================================================
|       100 |   61964   103636   259005 |    37999      100     33 | 29.296 % |
|       250 |   61964   103636   259005 |    41799      250     52 | 29.296 % |
|       475 |   61964   103636   259005 |    45979      475     53 | 29.296 % |
|       812 |   61964   103636   259005 |    50577      812     87 | 29.296 % |
|      1318 |   61964   103636   259005 |    55635     1318     76 | 29.296 % |
|      2077 |   61964   103636   259005 |    61199     2077     72 | 29.296 % |
|      3216 |   61964   103636   259005 |    67319     3216     71 | 29.296 % |
===============================================================================
restarts              : 23
conflicts             : 4471           (6676 /sec)
decisions             : 12754          (0.00 % random) (19044 /sec)
propagations          : 7372921        (11009026 /sec)
conflict literals     : 338540         (54.90 % deleted)
Memory used           : 25.61 MB
CPU time              : 0.669716 s

UNSATISFIABLE
